RT is False
Default write of storage_offers_DA.csv just to have a file (but constraint should be inactive)
Reading model...
...model read.
creating competitive generators file...
...competitive generators recorded.
Loading data...
.. day-ahead data with real-time VRE data read.
Compiling instance...
...instance created.
Creating Offer Mitigation (model will solve as dispatch if TRUE)...
NOTE: storage offers will not be mitigated
...storage offer mitigation file created
Converting model to MPEC...
...converted
NOTE: initial MIP solve with only storage competitive to get feasible solution
Solving...

Welcome to IBM(R) ILOG(R) CPLEX(R) Interactive Optimizer 12.9.0.0
  with Simplex, Mixed Integer & Barrier Optimizers
5725-A06 5725-A29 5724-Y48 5724-Y49 5724-Y54 5724-Y55 5655-Y21
Copyright IBM Corp. 1988, 2019.  All Rights Reserved.

Type 'help' for a list of available commands.
Type 'help' followed by a command name for more
information on commands.

CPLEX> Logfile 'cplex.log' closed.
Logfile 'C:\Users\llavin\Desktop\test826\logs\tmp1mc6kk5g.cplex.log' open.
CPLEX> New value for parallel optimization mode: -1
CPLEX> New value for emphasis for MIP optimization: 1
CPLEX> New value for mixed integer optimality gap tolerance: 0.01
CPLEX> New value for integrality tolerance: 1e-12
CPLEX> New value for deterministic time limit in ticks: 75000
CPLEX> Problem 'C:\Users\llavin\Desktop\test826\logs\tmp0qky5k0z.pyomo.lp' read.
Read time = 0.23 sec. (13.92 ticks)
CPLEX> Problem name         : C:\Users\llavin\Desktop\test826\logs\tmp0qky5k0z.pyomo.lp
Objective sense      : Maximize
Variables            :   53809  [Nneg: 1,  Box: 22004,  Free: 4464,
                                 Binary: 27340]
Objective nonzeros   :    8966
Linear constraints   :  123253  [Less: 41346,  Greater: 59096,  Equal: 22811]
  Nonzeros           :  293275
  RHS nonzeros       :   67477

Variables            : Min LB: -5000.000        Max UB: 1000000.       
Objective nonzeros   : Min   : 0.05833333       Max   : 832.2250       
Linear constraints   :
  Nonzeros           : Min   : 0.05833333       Max   : 1000000.       
  RHS nonzeros       : Min   : 0.05833333       Max   : 1000000.       
CPLEX> CPXPARAM_Parallel                                -1
CPXPARAM_Emphasis_MIP                            1
CPXPARAM_DetTimeLimit                            75000
CPXPARAM_MIP_Tolerances_MIPGap                   0.01
CPXPARAM_MIP_Tolerances_Integrality              9.9999999999999998e-13
Tried aggregator 4 times.
MIP Presolve eliminated 88781 rows and 19030 columns.
MIP Presolve added 3388 rows and 0 columns.
MIP Presolve modified 24864 coefficients.
Aggregator did 13015 substitutions.
Reduced MIP has 24845 rows, 21201 columns, and 70900 nonzeros.
Reduced MIP has 8372 binaries, 0 generals, 0 SOSs, and 0 indicators.
Presolve time = 0.33 sec. (196.44 ticks)
Probing fixed 379 vars, tightened 4128 bounds.
Probing time = 0.08 sec. (18.84 ticks)
Tried aggregator 2 times.
MIP Presolve eliminated 858 rows and 758 columns.
MIP Presolve modified 3018 coefficients.
Aggregator did 28 substitutions.
Reduced MIP has 23959 rows, 20415 columns, and 68342 nonzeros.
Reduced MIP has 7993 binaries, 0 generals, 0 SOSs, and 0 indicators.
Presolve time = 0.11 sec. (87.21 ticks)
Probing fixed 0 vars, tightened 319 bounds.
Probing time = 0.14 sec. (23.83 ticks)
Clique table members: 44962.
MIP emphasis: integer feasibility.
MIP search method: dynamic search.
Parallel mode: opportunistic, using up to 32 threads.
Root relaxation solution time = 0.44 sec. (633.86 ticks)

        Nodes                                         Cuts/
   Node  Left     Objective  IInf  Best Integer    Best Bound    ItCnt     Gap

      0     0     5798.6805   105                   5798.6805     5335         
*     0+    0                         5442.0796     5798.6805             6.55%
      0     0     5786.6321     9     5442.0796      Cuts: 15     5351    6.33%
      0     0     5784.4812     8     5442.0796      Cuts: 36     5359    6.29%
*     0+    0                         5582.6681     5784.4812             3.61%

Repeating presolve.
Tried aggregator 3 times.
MIP Presolve eliminated 11038 rows and 8385 columns.
MIP Presolve modified 17171 coefficients.
Aggregator did 196 substitutions.
Reduced MIP has 12725 rows, 11832 columns, and 38020 nonzeros.
Reduced MIP has 4365 binaries, 0 generals, 0 SOSs, and 0 indicators.
Presolve time = 0.11 sec. (61.78 ticks)
Probing fixed 565 vars, tightened 30939 bounds.
Probing time = 0.16 sec. (75.70 ticks)
Cover probing fixed 38 vars, tightened 1974 bounds.
Tried aggregator 3 times.
MIP Presolve eliminated 5935 rows and 5738 columns.
MIP Presolve modified 2292 coefficients.
Aggregator did 90 substitutions.
Reduced MIP has 6700 rows, 6003 columns, and 21753 nonzeros.
Reduced MIP has 2140 binaries, 0 generals, 0 SOSs, and 0 indicators.
Presolve time = 0.03 sec. (25.43 ticks)
Probing fixed 56 vars, tightened 3162 bounds.
Probing time = 0.05 sec. (18.74 ticks)
Tried aggregator 2 times.
MIP Presolve eliminated 151 rows and 140 columns.
MIP Presolve modified 1177 coefficients.
Aggregator did 25 substitutions.
Reduced MIP has 6524 rows, 5838 columns, and 21243 nonzeros.
Reduced MIP has 2075 binaries, 0 generals, 0 SOSs, and 0 indicators.
Presolve time = 0.01 sec. (12.05 ticks)
Probing fixed 19 vars, tightened 1943 bounds.
Probing time = 0.03 sec. (10.80 ticks)
Tried aggregator 2 times.
MIP Presolve eliminated 57 rows and 55 columns.
MIP Presolve modified 1121 coefficients.
Aggregator did 18 substitutions.
Reduced MIP has 6449 rows, 5765 columns, and 20966 nonzeros.
Reduced MIP has 2053 binaries, 0 generals, 0 SOSs, and 0 indicators.
Presolve time = 0.03 sec. (18.59 ticks)
Represolve time = 0.56 sec. (271.66 ticks)
Probing fixed 17 vars, tightened 1582 bounds.
Probing time = 0.03 sec. (6.98 ticks)
Cover probing fixed 4 vars, tightened 160 bounds.
Clique table members: 3079.
MIP emphasis: integer feasibility.
MIP search method: dynamic search.
Parallel mode: opportunistic, using up to 32 threads.
Root relaxation solution time = 0.11 sec. (108.51 ticks)

        Nodes                                         Cuts/
   Node  Left     Objective  IInf  Best Integer    Best Bound    ItCnt     Gap

*     0+    0                         5582.6681     5779.8540             3.53%
      0     0     5784.4812    19     5582.6681     5779.8540     7161    3.53%
      0     0     5774.6276    26     5582.6681      Cuts: 14     7198    3.44%
      0     0     5766.6235    20     5582.6681      Cuts: 34     7238    3.30%
      0     0     5759.6267    21     5582.6681      Cuts: 47     7260    3.17%

Clique cuts applied:  1
Implied bound cuts applied:  10
Flow cuts applied:  13
Mixed integer rounding cuts applied:  16
Lift and project cuts applied:  2
Gomory fractional cuts applied:  6

Root node processing (before b&c):
  Real time             =    3.92 sec. (2542.55 ticks)
Parallel b&c, 32 threads:
  Real time             =    0.00 sec. (0.00 ticks)
  Sync time (average)   =    0.00 sec.
  Wait time (average)   =    0.00 sec.
                          ------------
Total (root+branch&cut) =    3.92 sec. (2542.55 ticks)

Solution pool: 2 solutions saved.

MIP - Integer optimal, tolerance (0.01/1e-06):  Objective =  5.5826680883e+03
Current MIP best bound =  5.6347635520e+03 (gap = 52.0955, 0.93%)
Solution time =    3.95 sec.  Iterations = 7260  Nodes = 0 (1)
Deterministic time = 2542.70 ticks  (643.23 ticks/sec)

CPLEX> Incumbent solution written to file 'C:\Users\llavin\Desktop\test826\logs\tmpada8lseo.cplex.sol'.
CPLEX> NOTE: no warmstart specified for MIP iteration, default behavior is true
NOTE: resolving with all competitive generators using storage-only solution to warmstart
Solving...

Welcome to IBM(R) ILOG(R) CPLEX(R) Interactive Optimizer 12.9.0.0
  with Simplex, Mixed Integer & Barrier Optimizers
5725-A06 5725-A29 5724-Y48 5724-Y49 5724-Y54 5724-Y55 5655-Y21
Copyright IBM Corp. 1988, 2019.  All Rights Reserved.

Type 'help' for a list of available commands.
Type 'help' followed by a command name for more
information on commands.

CPLEX> Logfile 'cplex.log' closed.
Logfile 'C:\Users\llavin\Desktop\test826\logs\tmpqwmwvxt9.cplex.log' open.
CPLEX> New value for parallel optimization mode: -1
CPLEX> New value for emphasis for MIP optimization: 1
CPLEX> New value for mixed integer optimality gap tolerance: 0.01
CPLEX> New value for integrality tolerance: 1e-12
CPLEX> New value for deterministic time limit in ticks: 75000
CPLEX> Problem 'C:\Users\llavin\Desktop\test826\logs\tmp7knc0mz_.pyomo.lp' read.
Read time = 0.22 sec. (13.94 ticks)
CPLEX> MIP start file 'C:\Users\llavin\Desktop\test826\logs\tmpes7v9yyu.cplex.mst' read.
CPLEX> Problem name         : C:\Users\llavin\Desktop\test826\logs\tmp7knc0mz_.pyomo.lp
Objective sense      : Maximize
Variables            :   54529  [Nneg: 1,  Box: 22724,  Free: 4464,
                                 Binary: 27340]
Objective nonzeros   :    9662
Linear constraints   :  123253  [Less: 41346,  Greater: 59096,  Equal: 22811]
  Nonzeros           :  293275
  RHS nonzeros       :   67477

Variables            : Min LB: -5000.000        Max UB: 1000000.       
Objective nonzeros   : Min   : 0.05833333       Max   : 787.6750       
Linear constraints   :
  Nonzeros           : Min   : 0.05833333       Max   : 1000000.       
  RHS nonzeros       : Min   : 0.05833333       Max   : 1000000.       
CPLEX> CPXPARAM_Parallel                                -1
CPXPARAM_Emphasis_MIP                            1
CPXPARAM_DetTimeLimit                            75000
CPXPARAM_MIP_Tolerances_MIPGap                   0.01
CPXPARAM_MIP_Tolerances_Integrality              9.9999999999999998e-13
Warning:  No solution found from 1 MIP starts.
Retaining values of one MIP start for possible repair.
Tried aggregator 4 times.
MIP Presolve eliminated 88781 rows and 19750 columns.
MIP Presolve added 3388 rows and 0 columns.
MIP Presolve modified 24864 coefficients.
Aggregator did 13015 substitutions.
Reduced MIP has 24845 rows, 21201 columns, and 70900 nonzeros.
Reduced MIP has 8372 binaries, 0 generals, 0 SOSs, and 0 indicators.
Presolve time = 0.34 sec. (196.86 ticks)
Probing fixed 379 vars, tightened 4128 bounds.
Probing time = 0.06 sec. (18.84 ticks)
Tried aggregator 2 times.
MIP Presolve eliminated 858 rows and 758 columns.
MIP Presolve modified 3018 coefficients.
Aggregator did 28 substitutions.
Reduced MIP has 23959 rows, 20415 columns, and 68342 nonzeros.
Reduced MIP has 7993 binaries, 0 generals, 0 SOSs, and 0 indicators.
Presolve time = 0.11 sec. (87.21 ticks)
Probing fixed 0 vars, tightened 319 bounds.
Probing time = 0.16 sec. (23.83 ticks)
Clique table members: 44962.
MIP emphasis: integer feasibility.
MIP search method: dynamic search.
Parallel mode: opportunistic, using up to 32 threads.
Root relaxation solution time = 0.47 sec. (657.25 ticks)

        Nodes                                         Cuts/
   Node  Left     Objective  IInf  Best Integer    Best Bound    ItCnt     Gap

      0     0   151030.5617   266                 151030.5617     5844         
      0     0   147813.4716   217                   Cuts: 181     6088         
      0     0   146694.4338   214                    Cuts: 84     6226         
      0     0   146559.6290   209                    Cuts: 24     6250         
Repair heuristic found nothing.
      0     2   146559.6290   209                     Cuts: 9     6250         
Elapsed time = 4.75 sec. (1876.51 ticks, tree = 0.02 MB, solutions = 0)
    657   537   132061.0134   168                 142383.3714    11549         
   1118   788   109258.2821   138                 142383.3714    15968         
   1747  1211    45837.5825    76                 142383.3714    23286         
   2390  1579    13979.6886    50                 142383.3714    34018         
   3152  1961   -19312.8990    63                 142383.3714    40041         
   3894  2626    infeasible                       142383.3714    53473         
   4513  2750    21698.4240   122                 141591.3514    60359         
   5147  3237    infeasible                       141591.3514    73303         
   5840  3304    infeasible                       141591.3514    75088         
   8665  5720    41807.6692    80                 141591.3514   141261         
Elapsed time = 21.88 sec. (4978.80 ticks, tree = 41.15 MB, solutions = 0)
  11124  7162   -15351.1623    67                 141591.3514   185147         
  13645  8927   -26055.5819    70                 141591.3514   246234         
  16469 11115    34568.1719    78                 140785.6254   315560         
  19308 12738     4298.8689    85                 139187.0366   366061         
  21809 15260  -166603.9734    64                 137851.2006   446222         
  24523 15760    -8287.0635    83                 135642.4335   465210         
  27053 18190  -114543.4414   104                 126000.0481   561593         
  29578 19522   -11112.4021   104                 116490.9617   623215         
  32262 21726   -38389.8045    59                 116094.0318   717187         
  34750 22822    35148.8453    78                 115042.7057   766404         
Elapsed time = 75.50 sec. (14519.41 ticks, tree = 254.99 MB, solutions = 0)
  37251 24632   -20259.3136    95                 113618.5225   845977         
  39932 25054    infeasible                        75275.7827   863279         
  42757 26722    infeasible                        75275.7827   927730         
  45305 28254      517.2310    82                  75275.7827   973821         
  48009 29912    29873.9171    72                  75275.7827  1020656         
  50854 32151     4866.3058    81                  75275.7827  1086742         
  53617 34104    infeasible                        75275.7827  1147832         
  56129 36528    23700.0484    73                  75275.7827  1240467         
  58517 36851    infeasible                        75275.7827  1255326         
  61108 39421    20075.1328    78                  75275.7827  1365363         
Elapsed time = 129.01 sec. (24059.21 ticks, tree = 379.97 MB, solutions = 0)
  63908 39832    12498.4012    74                  75256.0983  1387242         
  66555 40087   -33089.4106    69                  72328.1779  1400222         
  69114 42542    12855.1492    75                  72328.1779  1536727         
  71598 42325    infeasible                        61026.7463  1527221         
  74069 43907  -688397.8820    88                  61026.7463  1627175         
  76635 44175 -1017107.9229    95                  61026.7463  1639170         
  79225 45330   -62856.2325    91                  61026.7463  1701620         
  81929 46077    11460.7815    68                  61026.7463  1742172         
  84772 48078    infeasible                        61026.7463  1850415         
  87557 48612     3560.7352    60                  61026.7463  1876239         
Elapsed time = 178.91 sec. (33597.78 ticks, tree = 583.51 MB, solutions = 0)
* 88473 49401      integral     0    25906.9552    61026.7463  1931096  135.56%
  89956 49896    infeasible          25906.9552    61026.7463  1952792  135.56%
  91364 50501    10566.2587    58    25906.9552    61026.7463  1987395  135.56%
  91449  6241    infeasible          25906.9552    45361.1363  2088106   75.09%
  93028   502    26266.8748     5    25912.0153    45361.1363  2107495   75.06%
  94807  1229        cutoff          25912.0153    45361.1363  2115871   75.06%
  95556  1356    26130.5769     3    25912.0153    45361.1363  2125248   75.06%
  96250  1383    26240.3630     5    25912.0153    45361.1363  2125626   75.06%
  96780  1412    26274.9406     4    25912.0153    45361.1363  2126089   75.06%
  97203  1415    26240.3630     3    25912.0153    45361.1363  2126302   75.06%
  97643  1449    26274.9406     6    25912.0153    45361.1363  2126784   75.06%
Elapsed time = 214.13 sec. (44751.90 ticks, tree = 7.22 MB, solutions = 2)
  98071  1465        cutoff          25912.0153    45361.1363  2126813   75.06%
  98618  1500        cutoff          25912.0153    45361.1363  2126993   75.06%
  99116  1809    26274.9406     4    25912.0153    45361.1363  2128600   75.06%
  99583  2136    26720.3603     6    25912.0153    45361.1363  2130978   75.06%
 100024  1963    26754.9379     5    25912.0153    45361.1363  2129770   75.06%
 100508  2201    26274.9406     6    25912.0153    45361.1363  2131954   75.06%
 100860  2202        cutoff          25912.0153    45361.1363  2131859   75.06%
 101240  2242        cutoff          25912.0153    45361.1363  2132576   75.06%
 101588  2393    26210.0612     3    25912.0153    45361.1363  2133763   75.06%
 101866  2745        cutoff          25912.0153    45361.1363  2136300   75.06%
Elapsed time = 238.95 sec. (54302.17 ticks, tree = 16.42 MB, solutions = 2)
 102161  2849        cutoff          25912.0153    45361.1363  2136972   75.06%
 102436  2872    26642.5324     3    25912.0153    45361.1363  2137020   75.06%
 102670  2896    26092.2594     4    25912.0153    45361.1363  2137313   75.06%
 102907  2896    26443.2383     5    25912.0153    45361.1363  2137120   75.06%
 103216  3047        cutoff          25912.0153    45361.1363  2138327   75.06%
 103423  2926    26485.6449     3    25912.0153    45361.1363  2137543   75.06%
 103637  2982        cutoff          25912.0153    45361.1363  2137831   75.06%
 103838  3043        cutoff          25912.0153    45361.1363  2138279   75.06%
 104023  3042    26111.9105     4    25912.0153    45361.1363  2138241   75.06%
 104229  3087        cutoff          25912.0153    45361.1363  2138862   75.06%
Elapsed time = 256.55 sec. (63857.40 ticks, tree = 19.08 MB, solutions = 2)
 104426  3170    26019.7519     3    25912.0153    45361.1363  2139207   75.06%
 104606  3207    25922.9541     5    25912.0153    45361.1363  2139806   75.06%
 104790  3170    26019.7519     3    25912.0153    45361.1363  2139212   75.06%
 104966  3234        cutoff          25912.0153    45361.1363  2140344   75.06%
 105124  3170    26051.8105     3    25912.0153    45361.1363  2139237   75.06%
 105269  3237        cutoff          25912.0153    45361.1363  2140417   75.06%
 105389  3241        cutoff          25912.0153    45361.1363  2140502   75.06%
 105494  3240        cutoff          25912.0153    45361.1363  2140493   75.06%
 105602  3246    26564.4113     3    25912.0153    45361.1363  2140615   75.06%
 105681  3241        cutoff          25912.0153    45361.1363  2140509   75.06%
Elapsed time = 263.23 sec. (73470.40 ticks, tree = 20.28 MB, solutions = 2)
 105747  3238    26485.6449     3    25912.0153    45361.1363  2140419   75.06%
 105773  3250    26019.7519     3    25912.0153    45361.1363  2140685   75.06%

GUB cover cuts applied:  1
Cover cuts applied:  22
Implied bound cuts applied:  56
Flow cuts applied:  144
Mixed integer rounding cuts applied:  21
Gomory fractional cuts applied:  12

Root node processing (before b&c):
  Real time             =    2.69 sec. (1826.30 ticks)
Parallel b&c, 32 threads:
  Real time             =  261.94 sec. (73617.00 ticks)
  Sync time (average)   =    1.94 sec.
  Wait time (average)   =    0.19 sec.
                          ------------
Total (root+branch&cut) =  264.63 sec. (75443.30 ticks)

Solution pool: 2 solutions saved.

MIP - Deterministic time limit exceeded, integer feasible:  Objective =  2.5912015266e+04
Current MIP best bound =  4.5361136336e+04 (gap = 19449.1, 75.06%)
Solution time =  264.66 sec.  Iterations = 2142140  Nodes = 105776 (3372)
Deterministic time = 75443.45 ticks  (285.06 ticks/sec)

CPLEX> Incumbent solution written to file 'C:\Users\llavin\Desktop\test826\logs\tmpbqp32nhr.cplex.sol'.
CPLEX> Exporting results... 
